p cnf 179 703
-1 -33 0
-2 -33 0
1 2 33 0
1 2 -34 0
-1 -2 -34 0
-1 2 34 0
1 -2 34 0
33 -35 0
-3 -35 0
3 -33 35 0
3 -33 -36 0
-3 33 -36 0
3 33 36 0
-3 -33 36 0
35 -37 0
-4 -37 0
4 -35 37 0
4 -35 -38 0
-4 35 -38 0
4 35 38 0
-4 -35 38 0
37 -39 0
-5 -39 0
5 -37 39 0
5 -37 -40 0
-5 37 -40 0
5 37 40 0
-5 -37 40 0
39 -41 0
-6 -41 0
6 -39 41 0
6 -39 -42 0
-6 39 -42 0
6 39 42 0
-6 -39 42 0
41 -43 0
-7 -43 0
7 -41 43 0
7 -41 -44 0
-7 41 -44 0
7 41 44 0
-7 -41 44 0
43 -45 0
-8 -45 0
8 -43 45 0
8 -43 -46 0
-8 43 -46 0
8 43 46 0
-8 -43 46 0
4 -47 0
1 -47 0
-1 -4 47 0
-1 -4 -48 0
1 4 -48 0
1 -4 48 0
-1 4 48 0
-2 -5 49 0
-5 -47 49 0
-2 -47 49 0
2 5 -49 0
5 47 -49 0
2 47 -49 0
5 -49 -50 0
2 -49 -50 0
47 -49 -50 0
-5 49 50 0
-2 49 50 0
-47 49 50 0
-2 -5 -47 50 0
2 5 47 -50 0
-3 -6 51 0
-6 -49 51 0
-3 -49 51 0
3 6 -51 0
6 49 -51 0
3 49 -51 0
6 -51 -52 0
3 -51 -52 0
49 -51 -52 0
-6 51 52 0
-3 51 52 0
-49 51 52 0
-3 -6 -49 52 0
3 6 49 -52 0
-4 -7 53 0
-7 -51 53 0
-4 -51 53 0
4 7 -53 0
7 51 -53 0
4 51 -53 0
7 -53 -54 0
4 -53 -54 0
51 -53 -54 0
-7 53 54 0
-4 53 54 0
-51 53 54 0
-4 -7 -51 54 0
4 7 51 -54 0
-5 -8 55 0
-8 -53 55 0
-5 -53 55 0
5 8 -55 0
8 53 -55 0
5 53 -55 0
8 -55 -56 0
5 -55 -56 0
53 -55 -56 0
-8 55 56 0
-5 55 56 0
-53 55 56 0
-5 -8 -53 56 0
5 8 53 -56 0
6 -57 0
55 -57 0
-6 -55 57 0
-6 -55 -58 0
6 55 -58 0
-6 55 58 0
6 -55 58 0
7 -59 0
57 -59 0
-7 -57 59 0
-7 -57 -60 0
7 57 -60 0
-7 57 60 0
7 -57 60 0
8 -61 0
59 -61 0
-8 -59 61 0
-8 -59 -62 0
8 59 -62 0
-8 59 62 0
8 -59 62 0
-1 -63 0
-2 -63 0
1 2 63 0
1 2 -64 0
-1 -2 -64 0
-1 2 64 0
1 -2 64 0
63 -65 0
-3 -65 0
3 -63 65 0
3 -63 -66 0
-3 63 -66 0
3 63 66 0
-3 -63 66 0
65 -67 0
-48 -67 0
48 -65 67 0
48 -65 -68 0
-48 65 -68 0
48 65 68 0
-48 -65 68 0
67 -69 0
-50 -69 0
50 -67 69 0
50 -67 -70 0
-50 67 -70 0
50 67 70 0
-50 -67 70 0
69 -71 0
-52 -71 0
52 -69 71 0
52 -69 -72 0
-52 69 -72 0
52 69 72 0
-52 -69 72 0
71 -73 0
-54 -73 0
54 -71 73 0
54 -71 -74 0
-54 71 -74 0
54 71 74 0
-54 -71 74 0
73 -75 0
-56 -75 0
56 -73 75 0
56 -73 -76 0
-56 73 -76 0
56 73 76 0
-56 -73 76 0
75 -77 0
-58 -77 0
58 -75 77 0
58 -75 -78 0
-58 75 -78 0
58 75 78 0
-58 -75 78 0
77 -79 0
-60 -79 0
60 -77 79 0
60 -77 -80 0
-60 77 -80 0
60 77 80 0
-60 -77 80 0
79 -81 0
-62 -81 0
62 -79 81 0
62 -79 -82 0
-62 79 -82 0
62 79 82 0
-62 -79 82 0
81 -83 0
-61 -83 0
61 -81 83 0
61 -81 -84 0
-61 81 -84 0
61 81 84 0
-61 -81 84 0
-9 -85 0
-10 -85 0
9 10 85 0
9 10 -86 0
-9 -10 -86 0
-9 10 86 0
9 -10 86 0
85 -87 0
-11 -87 0
11 -85 87 0
11 -85 -88 0
-11 85 -88 0
11 85 88 0
-11 -85 88 0
87 -89 0
-12 -89 0
12 -87 89 0
12 -87 -90 0
-12 87 -90 0
12 87 90 0
-12 -87 90 0
89 -91 0
-13 -91 0
13 -89 91 0
13 -89 -92 0
-13 89 -92 0
13 89 92 0
-13 -89 92 0
91 -93 0
-14 -93 0
14 -91 93 0
14 -91 -94 0
-14 91 -94 0
14 91 94 0
-14 -91 94 0
93 -95 0
-15 -95 0
15 -93 95 0
15 -93 -96 0
-15 93 -96 0
15 93 96 0
-15 -93 96 0
95 -97 0
-16 -97 0
16 -95 97 0
16 -95 -98 0
-16 95 -98 0
16 95 98 0
-16 -95 98 0
12 -99 0
9 -99 0
-9 -12 99 0
-9 -12 -100 0
9 12 -100 0
9 -12 100 0
-9 12 100 0
-10 -13 101 0
-13 -99 101 0
-10 -99 101 0
10 13 -101 0
13 99 -101 0
10 99 -101 0
13 -101 -102 0
10 -101 -102 0
99 -101 -102 0
-13 101 102 0
-10 101 102 0
-99 101 102 0
-10 -13 -99 102 0
10 13 99 -102 0
-11 -14 103 0
-14 -101 103 0
-11 -101 103 0
11 14 -103 0
14 101 -103 0
11 101 -103 0
14 -103 -104 0
11 -103 -104 0
101 -103 -104 0
-14 103 104 0
-11 103 104 0
-101 103 104 0
-11 -14 -101 104 0
11 14 101 -104 0
-12 -15 105 0
-15 -103 105 0
-12 -103 105 0
12 15 -105 0
15 103 -105 0
12 103 -105 0
15 -105 -106 0
12 -105 -106 0
103 -105 -106 0
-15 105 106 0
-12 105 106 0
-103 105 106 0
-12 -15 -103 106 0
12 15 103 -106 0
-13 -16 107 0
-16 -105 107 0
-13 -105 107 0
13 16 -107 0
16 105 -107 0
13 105 -107 0
16 -107 -108 0
13 -107 -108 0
105 -107 -108 0
-16 107 108 0
-13 107 108 0
-105 107 108 0
-13 -16 -105 108 0
13 16 105 -108 0
14 -109 0
107 -109 0
-14 -107 109 0
-14 -107 -110 0
14 107 -110 0
-14 107 110 0
14 -107 110 0
15 -111 0
109 -111 0
-15 -109 111 0
-15 -109 -112 0
15 109 -112 0
-15 109 112 0
15 -109 112 0
16 -113 0
111 -113 0
-16 -111 113 0
-16 -111 -114 0
16 111 -114 0
-16 111 114 0
16 -111 114 0
102 -115 0
9 -115 0
-9 -102 115 0
-9 -102 -116 0
9 102 -116 0
9 -102 116 0
-9 102 116 0
-10 -104 117 0
-104 -115 117 0
-10 -115 117 0
10 104 -117 0
104 115 -117 0
10 115 -117 0
104 -117 -118 0
10 -117 -118 0
115 -117 -118 0
-104 117 118 0
-10 117 118 0
-115 117 118 0
-10 -104 -115 118 0
10 104 115 -118 0
-11 -106 119 0
-106 -117 119 0
-11 -117 119 0
11 106 -119 0
106 117 -119 0
11 117 -119 0
106 -119 -120 0
11 -119 -120 0
117 -119 -120 0
-106 119 120 0
-11 119 120 0
-117 119 120 0
-11 -106 -117 120 0
11 106 117 -120 0
-12 -108 121 0
-108 -119 121 0
-12 -119 121 0
12 108 -121 0
108 119 -121 0
12 119 -121 0
108 -121 -122 0
12 -121 -122 0
119 -121 -122 0
-108 121 122 0
-12 121 122 0
-119 121 122 0
-12 -108 -119 122 0
12 108 119 -122 0
-13 -110 123 0
-110 -121 123 0
-13 -121 123 0
13 110 -123 0
110 121 -123 0
13 121 -123 0
110 -123 -124 0
13 -123 -124 0
121 -123 -124 0
-110 123 124 0
-13 123 124 0
-121 123 124 0
-13 -110 -121 124 0
13 110 121 -124 0
-14 -112 125 0
-112 -123 125 0
-14 -123 125 0
14 112 -125 0
112 123 -125 0
14 123 -125 0
112 -125 -126 0
14 -125 -126 0
123 -125 -126 0
-112 125 126 0
-14 125 126 0
-123 125 126 0
-14 -112 -123 126 0
14 112 123 -126 0
-15 -114 127 0
-114 -125 127 0
-15 -125 127 0
15 114 -127 0
114 125 -127 0
15 125 -127 0
114 -127 -128 0
15 -127 -128 0
125 -127 -128 0
-114 127 128 0
-15 127 128 0
-125 127 128 0
-15 -114 -125 128 0
15 114 125 -128 0
-16 -113 129 0
-113 -127 129 0
-16 -127 129 0
16 113 -129 0
113 127 -129 0
16 127 -129 0
113 -129 -130 0
16 -129 -130 0
127 -129 -130 0
-113 129 130 0
-16 129 130 0
-127 129 130 0
-16 -113 -127 130 0
16 113 127 -130 0
-9 -131 0
-10 -131 0
9 10 131 0
9 10 -132 0
-9 -10 -132 0
-9 10 132 0
9 -10 132 0
131 -133 0
-11 -133 0
11 -131 133 0
11 -131 -134 0
-11 131 -134 0
11 131 134 0
-11 -131 134 0
133 -135 0
-100 -135 0
100 -133 135 0
100 -133 -136 0
-100 133 -136 0
100 133 136 0
-100 -133 136 0
135 -137 0
-116 -137 0
116 -135 137 0
116 -135 -138 0
-116 135 -138 0
116 135 138 0
-116 -135 138 0
137 -139 0
-118 -139 0
118 -137 139 0
118 -137 -140 0
-118 137 -140 0
118 137 140 0
-118 -137 140 0
139 -141 0
-120 -141 0
120 -139 141 0
120 -139 -142 0
-120 139 -142 0
120 139 142 0
-120 -139 142 0
141 -143 0
-122 -143 0
122 -141 143 0
122 -141 -144 0
-122 141 -144 0
122 141 144 0
-122 -141 144 0
143 -145 0
-124 -145 0
124 -143 145 0
124 -143 -146 0
-124 143 -146 0
124 143 146 0
-124 -143 146 0
145 -147 0
-126 -147 0
126 -145 147 0
126 -145 -148 0
-126 145 -148 0
126 145 148 0
-126 -145 148 0
147 -149 0
-128 -149 0
128 -147 149 0
128 -147 -150 0
-128 147 -150 0
128 147 150 0
-128 -147 150 0
149 -151 0
-130 -151 0
130 -149 151 0
130 -149 -152 0
-130 149 -152 0
130 149 152 0
-130 -149 152 0
151 -153 0
-129 -153 0
129 -151 153 0
129 -151 -154 0
-129 151 -154 0
129 151 154 0
-129 -151 154 0
1 -155 0
11 -155 0
-1 -11 155 0
-1 -11 -156 0
1 11 -156 0
-1 11 156 0
1 -11 156 0
-2 -100 157 0
-2 -155 157 0
-100 -155 157 0
2 100 -157 0
2 155 -157 0
100 155 -157 0
2 -157 -158 0
100 -157 -158 0
155 -157 -158 0
-2 157 158 0
-100 157 158 0
-155 157 158 0
-2 -100 -155 158 0
2 100 155 -158 0
-3 -116 159 0
-3 -157 159 0
-116 -157 159 0
3 116 -159 0
3 157 -159 0
116 157 -159 0
3 -159 -160 0
116 -159 -160 0
157 -159 -160 0
-3 159 160 0
-116 159 160 0
-157 159 160 0
-3 -116 -157 160 0
3 116 157 -160 0
-48 -118 161 0
-48 -159 161 0
-118 -159 161 0
48 118 -161 0
48 159 -161 0
118 159 -161 0
48 -161 -162 0
118 -161 -162 0
159 -161 -162 0
-48 161 162 0
-118 161 162 0
-159 161 162 0
-48 -118 -159 162 0
48 118 159 -162 0
-50 -120 163 0
-50 -161 163 0
-120 -161 163 0
50 120 -163 0
50 161 -163 0
120 161 -163 0
50 -163 -164 0
120 -163 -164 0
161 -163 -164 0
-50 163 164 0
-120 163 164 0
-161 163 164 0
-50 -120 -161 164 0
50 120 161 -164 0
-52 -122 165 0
-52 -163 165 0
-122 -163 165 0
52 122 -165 0
52 163 -165 0
122 163 -165 0
52 -165 -166 0
122 -165 -166 0
163 -165 -166 0
-52 165 166 0
-122 165 166 0
-163 165 166 0
-52 -122 -163 166 0
52 122 163 -166 0
-54 -124 167 0
-54 -165 167 0
-124 -165 167 0
54 124 -167 0
54 165 -167 0
124 165 -167 0
54 -167 -168 0
124 -167 -168 0
165 -167 -168 0
-54 167 168 0
-124 167 168 0
-165 167 168 0
-54 -124 -165 168 0
54 124 165 -168 0
-56 -126 169 0
-56 -167 169 0
-126 -167 169 0
56 126 -169 0
56 167 -169 0
126 167 -169 0
56 -169 -170 0
126 -169 -170 0
167 -169 -170 0
-56 169 170 0
-126 169 170 0
-167 169 170 0
-56 -126 -167 170 0
56 126 167 -170 0
-58 -128 171 0
-58 -169 171 0
-128 -169 171 0
58 128 -171 0
58 169 -171 0
128 169 -171 0
58 -171 -172 0
128 -171 -172 0
169 -171 -172 0
-58 171 172 0
-128 171 172 0
-169 171 172 0
-58 -128 -169 172 0
58 128 169 -172 0
-60 -130 173 0
-60 -171 173 0
-130 -171 173 0
60 130 -173 0
60 171 -173 0
130 171 -173 0
60 -173 -174 0
130 -173 -174 0
171 -173 -174 0
-60 173 174 0
-130 173 174 0
-171 173 174 0
-60 -130 -171 174 0
60 130 171 -174 0
-62 -129 175 0
-62 -173 175 0
-129 -173 175 0
62 129 -175 0
62 173 -175 0
129 173 -175 0
62 -175 -176 0
129 -175 -176 0
173 -175 -176 0
-62 175 176 0
-129 175 176 0
-173 175 176 0
-62 -129 -173 176 0
62 129 173 -176 0
61 -177 0
175 -177 0
-61 -175 177 0
-61 -175 -178 0
61 175 -178 0
-61 175 178 0
61 -175 178 0
-9 -179 0
10 -179 0
-156 -179 0
158 -179 0
160 -179 0
-162 -179 0
-164 -179 0
166 -179 0
-168 -179 0
-170 -179 0
-172 -179 0
-174 -179 0
-176 -179 0
-177 -179 0
-178 -179 0
9 -10 156 -158 -160 162 164 -166 168 170 172 174 176 177 178 179 0
179 0
c main::$tmp::return_value_nondet_char!0@1#1 17 18 19 20 21 22 23 24
c symex::nondet1 9 10 11 12 13 14 15 16
c symex::nondet0 1 2 3 4 5 6 7 8
c main::$tmp::return_value_nondet_char$0!0@1#2 9 10 11 12 13 14 15 16
c __CPROVER_rounding_mode!0#1 FALSE FALSE FALSE FALSE FALSE FALSE FALSE FALSE FALSE FALSE FALSE FALSE FALSE FALSE FALSE FALSE FALSE FALSE FALSE FALSE FALSE FALSE FALSE FALSE FALSE FALSE FALSE FALSE FALSE FALSE FALSE FALSE
c main::$tmp::return_value_nondet_char$0!0@1#1 25 26 27 28 29 30 31 32
c __CPROVER_memory_leak#1 FALSE FALSE FALSE FALSE FALSE FALSE FALSE FALSE FALSE FALSE FALSE FALSE FALSE FALSE FALSE FALSE FALSE FALSE FALSE FALSE FALSE FALSE FALSE FALSE FALSE FALSE FALSE FALSE FALSE FALSE FALSE FALSE FALSE FALSE FALSE FALSE FALSE FALSE FALSE FALSE FALSE FALSE FALSE FALSE FALSE FALSE FALSE FALSE FALSE FALSE FALSE FALSE FALSE FALSE FALSE FALSE FALSE FALSE FALSE FALSE FALSE FALSE FALSE FALSE
c __CPROVER_max_malloc_size#1 FALSE FALSE FALSE FALSE FALSE FALSE FALSE FALSE FALSE FALSE FALSE FALSE FALSE FALSE FALSE FALSE FALSE FALSE FALSE FALSE FALSE FALSE FALSE FALSE FALSE FALSE FALSE FALSE FALSE FALSE FALSE FALSE FALSE FALSE FALSE FALSE FALSE FALSE FALSE FALSE FALSE FALSE FALSE FALSE FALSE FALSE FALSE FALSE FALSE FALSE FALSE FALSE FALSE FALSE FALSE TRUE FALSE FALSE FALSE FALSE FALSE FALSE FALSE FALSE
c __CPROVER_deallocated#1 FALSE FALSE FALSE FALSE FALSE FALSE FALSE FALSE FALSE FALSE FALSE FALSE FALSE FALSE FALSE FALSE FALSE FALSE FALSE FALSE FALSE FALSE FALSE FALSE FALSE FALSE FALSE FALSE FALSE FALSE FALSE FALSE FALSE FALSE FALSE FALSE FALSE FALSE FALSE FALSE FALSE FALSE FALSE FALSE FALSE FALSE FALSE FALSE FALSE FALSE FALSE FALSE FALSE FALSE FALSE FALSE FALSE FALSE FALSE FALSE FALSE FALSE FALSE FALSE
c main::$tmp::return_value_nondet_char!0@1#2 1 2 3 4 5 6 7 8
c __CPROVER_dead_object#1 FALSE FALSE FALSE FALSE FALSE FALSE FALSE FALSE FALSE FALSE FALSE FALSE FALSE FALSE FALSE FALSE FALSE FALSE FALSE FALSE FALSE FALSE FALSE FALSE FALSE FALSE FALSE FALSE FALSE FALSE FALSE FALSE FALSE FALSE FALSE FALSE FALSE FALSE FALSE FALSE FALSE FALSE FALSE FALSE FALSE FALSE FALSE FALSE FALSE FALSE FALSE FALSE FALSE FALSE FALSE FALSE FALSE FALSE FALSE FALSE FALSE FALSE FALSE FALSE
